NAME: ACTUAL_TOURS/amz2006
TYPE: TOUR
COMMENT: RouteID_d61173c5-3e82-4730-b77c-501b4fe340bd
DIMENSION: 112
TOUR_SECTION
99
107
100
64
15
42
110
28
102
89
34
29
84
30
22
3
4
101
6
51
35
109
67
82
50
92
104
32
111
20
61
41
18
10
106
45
98
54
90
46
44
48
75
112
93
95
31
9
2
97
88
33
49
37
7
12
71
25
43
70
26
85
81
79
47
103
1
53
76
8
80
96
74
58
55
23
60
36
83
69
94
13
65
24
11
62
91
63
52
56
39
87
68
14
16
17
21
57
108
77
78
38
5
27
66
73
59
40
72
86
105
19
-1
EOF
